letting n =  10
letting blocks =  [[1, 2], [1, 4], [2, 7], [2, 8], [3, 6], [3, 7], [4, 8], [4, 10], [5, 2], [5, 3], [5, 4], [5, 9], [6, 2], [6, 7], [6, 9], [7, 4], [7, 9], [8, 5], [8, 7], [9, 2], [9, 7], [9, 10], [10, 1], [10, 2], [10, 3], [10, 5], [10, 6], [10, 7]]
